(set-logic SLIA)
(define-fun func0  ((A String) (B Int) (C String) (D Int) ) String (str.substr A  (+ 1  (str.indexof A  C  D )) B ))
(define-fun func1  ((A String) (B Int) (C String) ) String (str.substr A  (+ 1  (str.indexof A  C  0 )) B ))
(define-fun func2  ((A String) (B Int) (C String) (D String) (E Int) ) String (str.substr A  (+ 1  (str.indexof C  D  E )) B ))
(define-fun func3  ((A String) (B Int) (C String) (D String) ) String (str.substr A  (+ 1  (str.indexof C  D  0 )) B ))
(define-fun func4  ((A String) (B Int) (C Int) ) String (str.substr A  (+ 1  C ) B ))
(define-fun func5  ((A String) (B Int) (C Int) (D String) (E Int) ) String (str.substr A  (+ C  (str.indexof A  D  E )) B ))
(define-fun func6  ((A String) (B Int) (C Int) (D String) ) String (str.substr A  (+ C  (str.indexof A  D  0 )) B ))
(define-fun func7  ((A String) (B Int) (C Int) (D String) (E String) (F Int) ) String (str.substr A  (+ C  (str.indexof D  E  F )) B ))
(define-fun func8  ((A String) (B Int) (C Int) (D String) (E String) ) String (str.substr A  (+ C  (str.indexof D  E  0 )) B ))
(define-fun func9  ((A String) (B Int) (C Int) (D Int) ) String (str.substr A  (+ C  D ) B ))
(define-fun func10  ((A String) (B Int) (C Int) ) String (str.substr A  (+ B  C ) (str.len A )))
(define-fun func11  ((A String) (B Int) (C Int) ) String (str.substr A  (+ B  C ) 3 ))
(define-fun func12  ((A String) (B Int) (C Int) (D String) (E Int) ) String (str.substr A  (- (str.indexof A  D  E ) C ) B ))
(define-fun func13  ((A String) (B Int) (C Int) (D String) (E String) (F Int) ) String (str.substr A  (- (str.indexof D  E  F ) C ) B ))
(define-fun func14  ((A String) (B Int) (C Int) (D Int) ) String (str.substr A  (- C  D ) B ))
(define-fun func15  ((A String) (B Int) ) String (str.substr A  0  B ))
(define-fun func16  ((A String) ) String (str.substr A  0  1 ))
(define-fun func17  ((A String) (B Int) (C Int) (D Int) ) String (str.substr A  B  (+ C  D )))
(define-fun func18  ((A String) (B Int) (C String) (D Int) ) String (str.substr A  B  (str.indexof A  C  D )))
(define-fun func19  ((A String) (B Int) (C String) (D String) (E Int) ) String (str.substr A  B  (str.indexof C  D  E )))
(define-fun func20  ((A String) (B Int) ) String (str.substr A  B  1 ))
(define-fun func21  ((A String) (B Int) (C Int) (D Int) ) String (str.substr A  B  (- C  D )))
(define-fun func22  ((A String) (B Int) ) String (str.substr A  B  (str.len A )))
(define-fun func23  ((A String) (B Int) ) String (str.substr A  B  3 ))
(define-fun func24  ((A String) (B Int) (C Int) (D String) ) String (str.substr A  (+ B  C ) (str.len D )))
(define-fun func25  ((A String) (B Int) ) String (str.substr A  -1  B ))
(define-fun func26  ((A String) (B Int) (C String) (D String) (E Int) ) String (str.substr A  (- (str.indexof C  D  E ) -1 ) B ))
(define-fun func27  ((A String) (B Int) (C Int) ) String (str.substr A  (- C  -1 ) B ))
(define-fun func28  ((A String) (B Int) (C Int) ) String (str.substr A  0  (+ B  C )))
(define-fun func29  ((A String) (B String) (C String) (D Int) ) String (str.substr A  0  (str.indexof B  C  D )))
(define-fun func30  ((A String) (B Int) (C String) ) String (str.substr A  B  (str.len C )))
(define-fun func31  ((A Int) ) Int (+ -1  A ))
(define-fun func32  ((A Int) ) Int (+ 1  A ))
(define-fun func33  ((A String) (B String) (C Int) ) Int (+ 1  (str.indexof A  B  C )))
(define-fun func34  ((A String) (B String) ) Int (+ 1  (str.indexof A  B  0 )))
(define-fun func35  ((A Int) (B String) (C String) (D Int) ) Int (+ A  (str.indexof B  C  D )))
(define-fun func36  ((A Int) (B String) (C String) ) Int (+ A  (str.indexof B  C  1 )))
(define-fun func37  ((A Int) (B String) (C String) ) Int (+ A  (str.indexof B  C  0 )))
(define-fun func38  ((A String) (B String) ) Int (str.indexof A  B  1 ))
(define-fun func39  ((A String) (B String) ) Int (str.indexof A  B  0 ))
(define-fun func40  ((A Int) (B String) (C String) (D Int) ) Int (- (str.indexof B  C  D ) A ))
(define-fun func41  ((A String) (B String) (C Int) ) Int (- (str.indexof A  B  C ) -1 ))
(define-fun func42  ((A Int) (B String) ) Int (- (str.len B ) A ))
(define-fun func43  ((A Int) ) Int (- A  -1 ))
(define-fun func44  ((A String) (B String) (C Int) (D Int) ) String (str.++ (str.substr B  C  D ) A ))
(define-fun func45  ((A String) (B String) (C Int) ) String (str.++ (str.substr B  0  C ) A ))
(define-fun func46  ((A String) (B String) ) String (str.++ (str.substr B  0  1 ) A ))
(define-fun func47  ((A String) (B String) (C Int) ) String (str.++ (str.substr B  C  1 ) A ))
(define-fun func48  ((A String) (B Int) (C Int) (D String) (E String) ) String (str.++ (str.substr A  B  C ) (str.++ D  E )))
(define-fun func49  ((A String) (B String) (C String) ) String (str.++ A  (str.++ B  C )))
(define-fun func50  ((A String) (B String) (C String) ) String (str.++ (str.++ B  C ) A ))
(define-fun func51  ((A String) (B String) (C Int) (D Int) ) String (str.++ A  (str.substr B  C  D )))
(synth-fun f ((_arg_0 String) (_arg_1 String) (_arg_2 String) (_arg_3 String)) Bool
( (Start Bool (ntBool))
 (ntString String (
	_arg_0 _arg_1 _arg_2 _arg_3 "" " " 
	(func6 ntString ntInt ntInt ntString)
	(func15 ntString ntInt)
	(func18 ntString ntInt ntString ntInt)
	(func20 ntString ntInt)
	(func22 ntString ntInt)
	(func27 ntString ntInt ntInt)
	(str.++ ntString ntString)
	(str.replace ntString ntString ntString)
	(int.to.str ntInt)
	(str.substr ntString ntInt ntInt)
))
 (ntInt Int (
	1 0 -1 
	(func32 ntInt)
	(+ ntInt ntInt)
	(- ntInt ntInt)
	(str.len ntString)
	(str.to.int ntString)
	(str.indexof ntString ntString ntInt)
))
 (ntBool Bool (
	true false
	(str.suffixof ntString ntString)
	(str.contains ntString ntString)
))
))
(constraint (= (f "yellow dog on green grass" "yellow" "green" "cat") true))
(constraint (= (f "warm gray sweater" "yellow" "green" "cat") false))
(constraint (= (f "blue neon signs" "blue" "green" "neon") false))
(constraint (= (f "hot pink socks" "blue" "pink" "neon") true))
(constraint (= (f "deep black eyes" "yellow" "green" "neon") false))
(check-synth)
